NAME:  inst3_10
TYPE: ATSP
COMMENT: Asymmetric TSP (Fischetti)
DIMENSION:  10
EDGE_WEIGHT_TYPE: EXPLICIT
EDGE_WEIGHT_FORMAT: FULL_MATRIX 
EDGE_WEIGHT_SECTION
    0  704  501  753  381  749  444  870  967  622
    569  0  639  906  976  955  807  385  806  931
    471  395  0  389  207  672  724  577  668  738
    411  765  228  0  268  146  178  644  237  318
    831  285  322  836  0  388  725  386  305  975
    281  780  266  787  195  0  695  321  662  511
    596  713  818  126  536  333  0  594  459  427
    639  914  122  198  400  361  241  0  478  856
    792  149  753  592  452  694  979  382  0  264
    508  355  616  721  948  475  220  805  189  0
EOF
